
Gurobi 13.0.2 (win64) logging started Fri Jul 24 09:54:12 2026

Set parameter LogFile to value "E:\codes\ExactEBRP\results\gf_c0_mechanism_transfer_c5_round30\runs\stage2__high_imbalance_seed6202__c4_candidate__300s\external\native_logs\L3.1_lp.gurobi.log"
Gurobi Optimizer version 13.0.2 build v13.0.2rc1 (win64 - Windows 10.0 (19045.2))

CPU model: 12th Gen Intel(R) Core(TM) i7-12700KF, instruction set [SSE2|AVX|AVX2]
Thread count: 12 physical cores, 20 logical processors, using up to 1 threads

Non-default parameters:
TimeLimit  239.5538427
MIPGap  0
MIPGapAbs  0
LogToConsole  0
Threads  1

Optimize a model with 93009 rows, 18187 columns and 663353 nonzeros (Min)
Model fingerprint: 0xf307a799
Model has 51 linear objective coefficients
Coefficient statistics:
  Matrix range     [1e-02, 2e+04]
  Objective range  [1e-02, 1e+00]
  Bounds range     [9e-01, 5e+04]
  RHS range        [9e-01, 1e+05]

Presolve removed 15522 rows and 217 columns
Presolve time: 0.33s
Presolved: 17920 rows, 95424 columns, 445905 nonzeros

Iteration    Objective       Primal Inf.    Dual Inf.      Time
       0      handle free variables                          0s

Extra simplex iterations after uncrush: 15

Extra simplex iterations from dual to original model: 43
    6670    7.6782176e+00   0.000000e+00   0.000000e+00      1s

Solved in 6670 iterations and 1.43 seconds (4.16 work units)
Optimal objective  7.678217611e+00

User-callback calls 6837, time in user-callback 0.00 sec
